[runlim] version:		1.10
[runlim] time limit:		311040000 seconds
[runlim] real time limit:	600 seconds
[runlim] space limit:		14000 MB
[runlim] argv[0]:		python3
[runlim] argv[1]:		-u
[runlim] argv[2]:		mip.py
[runlim] argv[3]:		TUD200.1
[runlim] start:			Tue Jan 20 15:00:01 2026
[runlim] main pid:		73579
Building MIP model...
[runlim] sample:		9.9 time, 10.0 real, 31.4 MB
[runlim] sample:		19.9 time, 20.0 real, 34.6 MB
Build time: 20.55s
Solving MIP (minimizing number of labels)...
Version identifier: 22.1.1.0 | 2022-11-28 | 9160aff4d
CPXPARAM_Read_DataCheck                          1
Legacy callback                                  i
Tried aggregator 2 times.
MIP Presolve eliminated 181795 rows and 73 columns.
MIP Presolve modified 17946 coefficients.
Aggregator did 4064 substitutions.
Reduced MIP has 11476 rows, 4039 columns, and 156648 nonzeros.
Reduced MIP has 4039 binaries, 0 generals, 0 SOSs, and 0 indicators.
Presolve time = 0.74 sec. (1078.05 ticks)
Found incumbent of value 48.000000 after 0.90 sec. (1343.40 ticks)
Probing time = 0.02 sec. (2.77 ticks)
Tried aggregator 1 time.
Detecting symmetries...
MIP Presolve eliminated 19 rows and 0 columns.
MIP Presolve modified 263 coefficients.
Reduced MIP has 11444 rows, 4037 columns, and 156571 nonzeros.
Reduced MIP has 4037 binaries, 0 generals, 0 SOSs, and 0 indicators.
Presolve time = 0.11 sec. (169.33 ticks)
Probing time = 0.01 sec. (2.95 ticks)
Clique table members: 13554.
MIP emphasis: balance optimality and feasibility.
MIP search method: dynamic search.
Parallel mode: deterministic, using up to 12 threads.
Root relaxation solution time = 1.10 sec. (1123.16 ticks)

        Nodes                                         Cuts/
   Node  Left     Objective  IInf  Best Integer    Best Bound    ItCnt     Gap

*     0+    0                           48.0000        0.0000           100.00%
*     0+    0                           22.0000        0.0000           100.00%
*     0+    0                           20.0000        0.0000           100.00%
*     0+    0                           18.0000        0.0000           100.00%
      0     0       12.0000   540       18.0000       12.0000     6622   33.33%

========== NEW INCUMBENT SOLUTION ==========
{1: 666, 2: 428, 3: 666, 4: 428, 5: 428, 6: 666, 7: 722, 8: 484, 9: 44, 10: 282, 11: 380, 12: 142, 13: 114, 14: 352, 15: 16, 16: 254, 17: 142, 18: 380, 19: 666, 20: 428, 21: 666, 22: 428, 23: 666, 24: 428, 25: 722, 26: 484, 27: 16, 28: 254, 29: 310, 30: 72, 31: 428, 32: 666, 33: 254, 34: 16, 35: 540, 36: 778, 37: 380, 38: 142, 39: 254, 40: 16, 41: 778, 42: 540, 43: 254, 44: 16, 45: 652, 46: 414, 47: 72, 48: 310, 49: 310, 50: 72, 51: 72, 52: 310, 53: 72, 54: 310, 55: 16, 56: 254, 57: 778, 58: 540, 59: 666, 60: 428, 61: 310, 62: 72, 63: 778, 64: 540, 65: 666, 66: 428, 67: 666, 68: 428, 69: 254, 70: 16, 71: 254, 72: 16, 73: 722, 74: 484, 75: 778, 76: 540, 77: 310, 78: 72, 79: 254, 80: 16, 81: 114, 82: 352, 83: 16, 84: 254, 85: 380, 86: 142, 87: 484, 88: 722, 89: 310, 90: 72, 91: 142, 92: 380, 93: 778, 94: 540, 95: 352, 96: 114, 97: 778, 98: 540, 99: 778, 100: 540, 101: 428, 102: 666, 103: 142, 104: 380, 105: 16, 106: 254, 107: 540, 108: 778, 109: 484, 110: 722, 111: 72, 112: 310, 113: 254, 114: 16, 115: 778, 116: 540, 117: 484, 118: 722, 119: 666, 120: 428, 121: 778, 122: 540, 123: 484, 124: 722, 125: 722, 126: 484, 127: 380, 128: 142, 129: 142, 130: 380, 131: 380, 132: 142, 133: 380, 134: 142, 135: 778, 136: 540, 137: 722, 138: 484, 139: 310, 140: 72, 141: 310, 142: 72, 143: 666, 144: 428, 145: 428, 146: 666, 147: 16, 148: 254, 149: 428, 150: 666, 151: 72, 152: 310, 153: 352, 154: 114, 155: 722, 156: 484, 157: 72, 158: 310, 159: 16, 160: 254, 161: 44, 162: 282, 163: 484, 164: 722, 165: 352, 166: 114, 167: 666, 168: 428, 169: 722, 170: 484, 171: 666, 172: 428, 173: 142, 174: 380, 175: 778, 176: 540, 177: 72, 178: 310, 179: 142, 180: 380, 181: 666, 182: 428, 183: 428, 184: 666, 185: 254, 186: 16, 187: 16, 188: 254, 189: 540, 190: 778, 191: 666, 192: 428, 193: 722, 194: 484, 195: 722, 196: 484, 197: 652, 198: 414, 199: 72, 200: 310}
Number of labels used: 18
Total time: 22.81 sec
Memory: 210.35 MB
=============================================

========== NEW INCUMBENT SOLUTION ==========
{1: 666, 2: 428, 3: 666, 4: 428, 5: 428, 6: 666, 7: 722, 8: 484, 9: 44, 10: 282, 11: 380, 12: 142, 13: 114, 14: 352, 15: 16, 16: 254, 17: 142, 18: 380, 19: 666, 20: 428, 21: 666, 22: 428, 23: 666, 24: 428, 25: 722, 26: 484, 27: 16, 28: 254, 29: 310, 30: 72, 31: 428, 32: 666, 33: 254, 34: 16, 35: 540, 36: 778, 37: 380, 38: 142, 39: 254, 40: 16, 41: 778, 42: 540, 43: 254, 44: 16, 45: 652, 46: 414, 47: 72, 48: 310, 49: 310, 50: 72, 51: 72, 52: 310, 53: 72, 54: 310, 55: 16, 56: 254, 57: 778, 58: 540, 59: 666, 60: 428, 61: 310, 62: 72, 63: 778, 64: 540, 65: 666, 66: 428, 67: 666, 68: 428, 69: 254, 70: 16, 71: 254, 72: 16, 73: 722, 74: 484, 75: 778, 76: 540, 77: 310, 78: 72, 79: 254, 80: 16, 81: 114, 82: 352, 83: 16, 84: 254, 85: 380, 86: 142, 87: 484, 88: 722, 89: 310, 90: 72, 91: 142, 92: 380, 93: 778, 94: 540, 95: 352, 96: 114, 97: 778, 98: 540, 99: 778, 100: 540, 101: 428, 102: 666, 103: 142, 104: 380, 105: 16, 106: 254, 107: 540, 108: 778, 109: 484, 110: 722, 111: 72, 112: 310, 113: 254, 114: 16, 115: 778, 116: 540, 117: 484, 118: 722, 119: 666, 120: 428, 121: 778, 122: 540, 123: 484, 124: 722, 125: 722, 126: 484, 127: 380, 128: 142, 129: 142, 130: 380, 131: 380, 132: 142, 133: 380, 134: 142, 135: 778, 136: 540, 137: 722, 138: 484, 139: 310, 140: 72, 141: 310, 142: 72, 143: 666, 144: 428, 145: 428, 146: 666, 147: 16, 148: 254, 149: 428, 150: 666, 151: 72, 152: 310, 153: 352, 154: 114, 155: 722, 156: 484, 157: 72, 158: 310, 159: 16, 160: 254, 161: 44, 162: 282, 163: 484, 164: 722, 165: 352, 166: 114, 167: 666, 168: 428, 169: 722, 170: 484, 171: 666, 172: 428, 173: 142, 174: 380, 175: 778, 176: 540, 177: 72, 178: 310, 179: 142, 180: 380, 181: 666, 182: 428, 183: 428, 184: 666, 185: 254, 186: 16, 187: 16, 188: 254, 189: 540, 190: 778, 191: 666, 192: 428, 193: 722, 194: 484, 195: 722, 196: 484, 197: 652, 198: 414, 199: 72, 200: 310}
Number of labels used: 18
Total time: 22.82 sec
Memory: 210.48 MB
=============================================
*     0+    0                           12.0000       12.0000             0.00%
      0     0        cutoff             12.0000       12.0000     6622    0.00%
Elapsed time = 5.48 sec. (7403.06 ticks, tree = 0.01 MB, solutions = 5)

Root node processing (before b&c):
  Real time             =    5.48 sec. (7403.56 ticks)
Parallel b&c, 12 threads:
  Real time             =    0.00 sec. (0.00 ticks)
  Sync time (average)   =    0.00 sec.
  Wait time (average)   =    0.00 sec.
                          ------------
Total (root+branch&cut) =    5.48 sec. (7403.56 ticks)
Solution :
{72, 310, 72, 310, 456, 694, 72, 310, 72, 310, 792, 554, 792, 554, 778, 540, 792, 554, 380, 142, 16, 254, 142, 380, 792, 554, 792, 554, 16, 254, 72, 310, 456, 694, 254, 16, 694, 456, 792, 554, 142, 380, 254, 16, 554, 792, 142, 380, 540, 778, 142, 380, 792, 554, 72, 310, 778, 540, 16, 254, 72, 310, 16, 254, 16, 254, 694, 456, 456, 694, 554, 792, 142, 380, 142, 380, 72, 310, 694, 456, 554, 792, 16, 254, 310, 72, 16, 254, 694, 456, 694, 456, 778, 540, 694, 456, 540, 778, 310, 72, 310, 72, 142, 380, 72, 310, 142, 380, 540, 778, 792, 554, 554, 792, 380, 142, 380, 142, 456, 694, 778, 540, 254, 16, 778, 540, 792, 554, 380, 142, 456, 694, 554, 792, 792, 554, 540, 778, 778, 540, 142, 380, 694, 456, 72, 310, 554, 792, 142, 380, 694, 456, 540, 778, 694, 456, 694, 456, 778, 540, 778, 540, 254, 16, 694, 456, 778, 540, 16, 254, 254, 16, 72, 310, 310, 72, 778, 540, 16, 254, 72, 310, 694, 456, 16, 254, 142, 380, 380, 142, 142, 380, 792, 554, 380, 142, 142, 380, 310, 72}
Number of labels used: 12
[runlim] end:			Tue Jan 20 15:00:27 2026
[runlim] status:		ok
[runlim] result:		0
[runlim] children:		0
[runlim] real:			26.19 seconds
[runlim] time:			33.49 seconds
[runlim] space:			244.4 MB
[runlim] samples:		261
